tsp_instances/TSP50/instance61.tsp
NODE_COORD_SECTION
0 22 15
1 196 151
2 95 169
3 198 170
4 143 67
5 72 71
6 151 19
7 165 160
8 113 12
9 28 145
10 195 58
11 130 51
12 27 129
13 172 180
14 175 143
15 6 19
16 75 6
17 22 195
18 9 63
19 53 131
20 97 121
21 38 56
22 194 92
23 189 11
24 150 51
25 26 41
26 162 48
27 177 146
28 32 51
29 2 126
30 52 101
31 159 185
32 51 163
33 101 20
34 176 78
35 18 127
36 102 155
37 12 31
38 83 106
39 33 116
40 153 122
41 194 160
42 11 151
43 82 103
44 66 106
45 187 5
46 71 46
47 130 195
48 51 23
49 54 12
