tsp_instances/TSP50/instance61.opt.tour
TOUR_SECTION
1
16
38
26
19
29
22
47
6
31
40
13
36
30
43
10
18
33
20
45
44
39
21
37
3
48
32
14
8
4
42
2
28
15
41
23
35
11
24
46
7
27
25
5
12
9
34
17
50
49
-1